Hf 
 1.0000000000000000
     9.4607821139999988    0.0000000000000000    0.0000000000000000
     4.7303910569999994    8.1932776503934459    0.0000000000000000
     0.0000000000000000    0.0000000000000000   30.0545236370576561
  36
Cartesian
  9.4607821139999988  5.4621851002622970 18.7352037990059088
  6.3071880760000001  5.4621851002622970 18.7352037990059088
  3.1535940380000000  5.4621851002622970 18.7352037990059088
  7.8839850949999999  2.7310925501311485 18.7352037990059088
  4.7303910569999994  2.7310925501311485 18.7352037990059088
  1.5767970190000000  2.7310925501311485 18.7352037990059088
  6.3071880760000001  0.0000000000000000 18.7352037990059088
  3.1535940380000000  0.0000000000000000 18.7352037990059088
  0.0000000000000000  0.0000000000000000 18.7352037990059088
  9.4607821139999988  7.2829134670163951 16.2632424786878538
  6.3071880760000001  7.2829134670163951 16.2632424786878538
  3.1535940380000000  7.2829134670163951 16.2632424786878538
  7.8839850949999990  4.5518209168852470 16.2632424786878538
  4.7303910569999994  4.5518209168852470 16.2632424786878538
  1.5767970189999998  4.5518209168852470 16.2632424786878538
  6.3071880760000001  1.8207283667540988 16.2632424786878538
  3.1535940380000000  1.8207283667540988 16.2632424786878538
  0.0000000000000000  1.8207283667540988 16.2632424786878538
  9.4607821139999988  5.4621851002622970 13.7912811583698005
  6.3071880760000001  5.4621851002622970 13.7912811583698005
  3.1535940380000000  5.4621851002622970 13.7912811583698005
  7.8839850949999999  2.7310925501311485 13.7912811583698005
  4.7303910569999994  2.7310925501311485 13.7912811583698005
  1.5767970190000000  2.7310925501311485 13.7912811583698005
  6.3071880760000001  0.0000000000000000 13.7912811583698005
  3.1535940380000000  0.0000000000000000 13.7912811583698005
  0.0000000000000000  0.0000000000000000 13.7912811583698005
  9.4607821139999988  7.2829134670163951 11.3193198380517472
  6.3071880760000001  7.2829134670163951 11.3193198380517472
  3.1535940380000000  7.2829134670163951 11.3193198380517472
  7.8839850949999990  4.5518209168852470 11.3193198380517472
  4.7303910569999994  4.5518209168852470 11.3193198380517472
  1.5767970189999998  4.5518209168852470 11.3193198380517472
  6.3071880760000001  1.8207283667540988 11.3193198380517472
  3.1535940380000000  1.8207283667540988 11.3193198380517472
  0.0000000000000000  1.8207283667540988 11.3193198380517472
