Cu 
 1.0000000000000000
     7.7531189812669545    0.0000000000000000    0.0000000000000000
     3.8765594906334773    6.7143979963405087    0.0000000000000000
     0.0000000000000000    0.0000000000000000   23.9081176827191975
  36
Cartesian
  7.7531189812669536  4.4762653308936722 15.1192564112247574
  5.1687459875113024  4.4762653308936722 15.1192564112247574
  2.5843729937556512  4.4762653308936722 15.1192564112247574
  6.4609324843891276  2.2381326654468361 15.1192564112247574
  3.8765594906334768  2.2381326654468361 15.1192564112247574
  1.2921864968778256  2.2381326654468361 15.1192564112247574
  5.1687459875113024  0.0000000000000000 15.1192564112247574
  2.5843729937556512  0.0000000000000000 15.1192564112247574
  0.0000000000000000  0.0000000000000000 15.1192564112247574
  7.7531189812669536  5.9683537745248962 13.0091246979813207
  5.1687459875113024  5.9683537745248962 13.0091246979813207
  2.5843729937556508  5.9683537745248962 13.0091246979813207
  6.4609324843891276  3.7302211090780601 13.0091246979813207
  3.8765594906334768  3.7302211090780601 13.0091246979813207
  1.2921864968778256  3.7302211090780601 13.0091246979813207
  5.1687459875113024  1.4920884436312241 13.0091246979813207
  2.5843729937556517  1.4920884436312241 13.0091246979813207
  0.0000000000000000  1.4920884436312241 13.0091246979813207
  9.0453054781447779  5.2223095527092847 10.8989929847378786
  6.4609324843891276  5.2223095527092847 10.8989929847378786
  3.8765594906334768  5.2223095527092847 10.8989929847378786
  7.7531189812669536  2.9841768872624481 10.8989929847378786
  5.1687459875113015  2.9841768872624481 10.8989929847378786
  2.5843729937556508  2.9841768872624481 10.8989929847378786
  6.4609324843891276  0.7460442218156120 10.8989929847378786
  3.8765594906334764  0.7460442218156120 10.8989929847378786
  1.2921864968778254  0.7460442218156120 10.8989929847378786
  7.7531189812669536  4.4762653308936722  8.7888612714944383
  5.1687459875113024  4.4762653308936722  8.7888612714944383
  2.5843729937556512  4.4762653308936722  8.7888612714944383
  6.4609324843891276  2.2381326654468361  8.7888612714944383
  3.8765594906334768  2.2381326654468361  8.7888612714944383
  1.2921864968778256  2.2381326654468361  8.7888612714944383
  5.1687459875113024  0.0000000000000000  8.7888612714944383
  2.5843729937556512  0.0000000000000000  8.7888612714944383
  0.0000000000000000  0.0000000000000000  8.7888612714944383
