Ni 
 1.0000000000000000
     7.4719776341759081    0.0000000000000000    0.0000000000000000
     3.7359888170879541    6.4709224477054841    0.0000000000000000
     0.0000000000000000    0.0000000000000000   23.0411684680906674
  36
Cartesian
  7.4719776341759081  4.3139482984703221 14.5710063295818681
  4.9813184227839384  4.3139482984703221 14.5710063295818681
  2.4906592113919692  4.3139482984703221 14.5710063295818681
  6.2266480284799224  2.1569741492351611 14.5710063295818681
  3.7359888170879541  2.1569741492351611 14.5710063295818681
  1.2453296056959846  2.1569741492351611 14.5710063295818681
  4.9813184227839384  0.0000000000000000 14.5710063295818681
  2.4906592113919692  0.0000000000000000 14.5710063295818681
  0.0000000000000000  0.0000000000000000 14.5710063295818681
  7.4719776341759081  5.7519310646270965 12.5373915992241809
  4.9813184227839384  5.7519310646270965 12.5373915992241809
  2.4906592113919688  5.7519310646270965 12.5373915992241809
  6.2266480284799224  3.5949569153919350 12.5373915992241809
  3.7359888170879541  3.5949569153919350 12.5373915992241809
  1.2453296056959846  3.5949569153919350 12.5373915992241809
  4.9813184227839384  1.4379827661567741 12.5373915992241809
  2.4906592113919697  1.4379827661567741 12.5373915992241809
  0.0000000000000000  1.4379827661567741 12.5373915992241809
  8.7173072398718912  5.0329396815487097 10.5037768688664901
  6.2266480284799224  5.0329396815487097 10.5037768688664901
  3.7359888170879541  5.0329396815487097 10.5037768688664901
  7.4719776341759081  2.8759655323135482 10.5037768688664901
  4.9813184227839375  2.8759655323135482 10.5037768688664901
  2.4906592113919688  2.8759655323135482 10.5037768688664901
  6.2266480284799224  0.7189913830783871 10.5037768688664901
  3.7359888170879532  0.7189913830783871 10.5037768688664901
  1.2453296056959844  0.7189913830783871 10.5037768688664901
  7.4719776341759081  4.3139482984703221  8.4701621385088011
  4.9813184227839384  4.3139482984703221  8.4701621385088011
  2.4906592113919692  4.3139482984703221  8.4701621385088011
  6.2266480284799224  2.1569741492351611  8.4701621385088011
  3.7359888170879541  2.1569741492351611  8.4701621385088011
  1.2453296056959846  2.1569741492351611  8.4701621385088011
  4.9813184227839384  0.0000000000000000  8.4701621385088011
  2.4906592113919692  0.0000000000000000  8.4701621385088011
  0.0000000000000000  0.0000000000000000  8.4701621385088011
