Au 
 1.0000000000000000
     8.8562868064871285    0.0000000000000000    0.0000000000000000
     4.4281434032435643    7.6697693576188106    0.0000000000000000
     0.0000000000000000    0.0000000000000000   27.3099313596251818
  36
Cartesian
  8.8562868064871303  5.1131795717458743 17.2705296284186218
  5.9041912043247526  5.1131795717458743 17.2705296284186218
  2.9520956021623763  5.1131795717458743 17.2705296284186218
  7.3802390054059410  2.5565897858729372 17.2705296284186218
  4.4281434032435651  2.5565897858729372 17.2705296284186218
  1.4760478010811882  2.5565897858729372 17.2705296284186218
  5.9041912043247526  0.0000000000000000 17.2705296284186218
  2.9520956021623763  0.0000000000000000 17.2705296284186218
  0.0000000000000000  0.0000000000000000 17.2705296284186218
  8.8562868064871303  6.8175727623278322 14.8601536626812702
  5.9041912043247526  6.8175727623278322 14.8601536626812702
  2.9520956021623759  6.8175727623278322 14.8601536626812702
  7.3802390054059410  4.2609829764548950 14.8601536626812702
  4.4281434032435651  4.2609829764548950 14.8601536626812702
  1.4760478010811882  4.2609829764548950 14.8601536626812702
  5.9041912043247526  1.7043931905819580 14.8601536626812702
  2.9520956021623768  1.7043931905819580 14.8601536626812702
  0.0000000000000000  1.7043931905819580 14.8601536626812702
 10.3323346075683169  5.9653761670368537 12.4497776969439133
  7.3802390054059410  5.9653761670368537 12.4497776969439133
  4.4281434032435651  5.9653761670368537 12.4497776969439133
  8.8562868064871303  3.4087863811639161 12.4497776969439133
  5.9041912043247518  3.4087863811639161 12.4497776969439133
  2.9520956021623759  3.4087863811639161 12.4497776969439133
  7.3802390054059410  0.8521965952909790 12.4497776969439133
  4.4281434032435643  0.8521965952909790 12.4497776969439133
  1.4760478010811879  0.8521965952909790 12.4497776969439133
  8.8562868064871303  5.1131795717458743 10.0394017312065564
  5.9041912043247526  5.1131795717458743 10.0394017312065564
  2.9520956021623763  5.1131795717458743 10.0394017312065564
  7.3802390054059410  2.5565897858729372 10.0394017312065564
  4.4281434032435651  2.5565897858729372 10.0394017312065564
  1.4760478010811882  2.5565897858729372 10.0394017312065564
  5.9041912043247526  0.0000000000000000 10.0394017312065564
  2.9520956021623763  0.0000000000000000 10.0394017312065564
  0.0000000000000000  0.0000000000000000 10.0394017312065564
