Re 
 1.0000000000000000
     8.3570340060000010    0.0000000000000000    0.0000000000000000
     4.1785170030000005    7.2374037494864361    0.0000000000000000
     0.0000000000000000    0.0000000000000000   27.1051428212798449
  36
Cartesian
  8.3570340060000010  4.8249358329909571 16.8966369552332587
  5.5713560040000010  4.8249358329909571 16.8966369552332587
  2.7856780020000005  4.8249358329909571 16.8966369552332587
  6.9641950050000014  2.4124679164954785 16.8966369552332587
  4.1785170030000005  2.4124679164954785 16.8966369552332587
  1.3928390010000002  2.4124679164954785 16.8966369552332587
  5.5713560040000010  0.0000000000000000 16.8966369552332587
  2.7856780020000005  0.0000000000000000 16.8966369552332587
  0.0000000000000000  0.0000000000000000 16.8966369552332587
  8.3570340060000010  6.4332477773212755 14.6672599255043696
  5.5713560040000010  6.4332477773212755 14.6672599255043696
  2.7856780020000005  6.4332477773212755 14.6672599255043696
  6.9641950050000005  4.0207798608257974 14.6672599255043696
  4.1785170030000005  4.0207798608257974 14.6672599255043696
  1.3928390010000000  4.0207798608257974 14.6672599255043696
  5.5713560040000010  1.6083119443303189 14.6672599255043696
  2.7856780020000005  1.6083119443303189 14.6672599255043696
  0.0000000000000000  1.6083119443303189 14.6672599255043696
  8.3570340060000010  4.8249358329909571 12.4378828957754788
  5.5713560040000010  4.8249358329909571 12.4378828957754788
  2.7856780020000005  4.8249358329909571 12.4378828957754788
  6.9641950050000014  2.4124679164954785 12.4378828957754788
  4.1785170030000005  2.4124679164954785 12.4378828957754788
  1.3928390010000002  2.4124679164954785 12.4378828957754788
  5.5713560040000010  0.0000000000000000 12.4378828957754788
  2.7856780020000005  0.0000000000000000 12.4378828957754788
  0.0000000000000000  0.0000000000000000 12.4378828957754788
  8.3570340060000010  6.4332477773212755 10.2085058660465862
  5.5713560040000010  6.4332477773212755 10.2085058660465862
  2.7856780020000005  6.4332477773212755 10.2085058660465862
  6.9641950050000005  4.0207798608257974 10.2085058660465862
  4.1785170030000005  4.0207798608257974 10.2085058660465862
  1.3928390010000000  4.0207798608257974 10.2085058660465862
  5.5713560040000010  1.6083119443303189 10.2085058660465862
  2.7856780020000005  1.6083119443303189 10.2085058660465862
  0.0000000000000000  1.6083119443303189 10.2085058660465862
