Zr 
 1.0000000000000000
     9.6107744579999999    0.0000000000000000    0.0000000000000000
     4.8053872289999999    8.3231748306706201    0.0000000000000000
     0.0000000000000000    0.0000000000000000   30.7469648918245255
  36
Cartesian
  9.6107744579999999  5.5487832204470795 19.1668535627340120
  6.4071829720000002  5.5487832204470795 19.1668535627340120
  3.2035914860000001  5.5487832204470795 19.1668535627340120
  8.0089787149999996  2.7743916102235398 19.1668535627340120
  4.8053872289999999  2.7743916102235398 19.1668535627340120
  1.6017957430000000  2.7743916102235398 19.1668535627340120
  6.4071829720000002  0.0000000000000000 19.1668535627340120
  3.2035914860000001  0.0000000000000000 19.1668535627340120
  0.0000000000000000  0.0000000000000000 19.1668535627340120
  9.6107744579999999  7.3983776272627724 16.6379394848528470
  6.4071829720000002  7.3983776272627724 16.6379394848528470
  3.2035914860000001  7.3983776272627724 16.6379394848528470
  8.0089787149999996  4.6239860170392326 16.6379394848528470
  4.8053872289999999  4.6239860170392326 16.6379394848528470
  1.6017957429999998  4.6239860170392326 16.6379394848528470
  6.4071829720000002  1.8495944068156931 16.6379394848528470
  3.2035914860000001  1.8495944068156931 16.6379394848528470
  0.0000000000000000  1.8495944068156931 16.6379394848528470
  9.6107744579999999  5.5487832204470795 14.1090254069716803
  6.4071829720000002  5.5487832204470795 14.1090254069716803
  3.2035914860000001  5.5487832204470795 14.1090254069716803
  8.0089787149999996  2.7743916102235398 14.1090254069716803
  4.8053872289999999  2.7743916102235398 14.1090254069716803
  1.6017957430000000  2.7743916102235398 14.1090254069716803
  6.4071829720000002  0.0000000000000000 14.1090254069716803
  3.2035914860000001  0.0000000000000000 14.1090254069716803
  0.0000000000000000  0.0000000000000000 14.1090254069716803
  9.6107744579999999  7.3983776272627724 11.5801113290905118
  6.4071829720000002  7.3983776272627724 11.5801113290905118
  3.2035914860000001  7.3983776272627724 11.5801113290905118
  8.0089787149999996  4.6239860170392326 11.5801113290905118
  4.8053872289999999  4.6239860170392326 11.5801113290905118
  1.6017957429999998  4.6239860170392326 11.5801113290905118
  6.4071829720000002  1.8495944068156931 11.5801113290905118
  3.2035914860000001  1.8495944068156931 11.5801113290905118
  0.0000000000000000  1.8495944068156931 11.5801113290905118
