Pd 
 1.0000000000000000
     8.3933979448490597    0.0000000000000000    0.0000000000000000
     4.1966989724245298    7.2688958443113831    0.0000000000000000
     0.0000000000000000    0.0000000000000000   25.8825314442101835
  36
Cartesian
  8.3933979448490597  4.8459305628742548 16.3678560842726206
  5.5955986298993725  4.8459305628742548 16.3678560842726206
  2.7977993149496863  4.8459305628742548 16.3678560842726206
  6.9944982873742161  2.4229652814371274 16.3678560842726206
  4.1966989724245298  2.4229652814371274 16.3678560842726206
  1.3988996574748431  2.4229652814371274 16.3678560842726206
  5.5955986298993725  0.0000000000000000 16.3678560842726206
  2.7977993149496863  0.0000000000000000 16.3678560842726206
  0.0000000000000000  0.0000000000000000 16.3678560842726206
  8.3933979448490597  6.4612407504990070 14.0834625094942698
  5.5955986298993725  6.4612407504990070 14.0834625094942698
  2.7977993149496858  6.4612407504990070 14.0834625094942698
  6.9944982873742161  4.0382754690618787 14.0834625094942698
  4.1966989724245298  4.0382754690618787 14.0834625094942698
  1.3988996574748431  4.0382754690618787 14.0834625094942698
  5.5955986298993725  1.6153101876247518 14.0834625094942698
  2.7977993149496867  1.6153101876247518 14.0834625094942698
  0.0000000000000000  1.6153101876247518 14.0834625094942698
  9.7922976023239023  5.6535856566866318 11.7990689347159172
  6.9944982873742161  5.6535856566866318 11.7990689347159172
  4.1966989724245298  5.6535856566866318 11.7990689347159172
  8.3933979448490597  3.2306203752495035 11.7990689347159172
  5.5955986298993716  3.2306203752495035 11.7990689347159172
  2.7977993149496858  3.2306203752495035 11.7990689347159172
  6.9944982873742161  0.8076550938123759 11.7990689347159172
  4.1966989724245289  0.8076550938123759 11.7990689347159172
  1.3988996574748429  0.8076550938123759 11.7990689347159172
  8.3933979448490597  4.8459305628742548  9.5146753599375629
  5.5955986298993725  4.8459305628742548  9.5146753599375629
  2.7977993149496863  4.8459305628742548  9.5146753599375629
  6.9944982873742161  2.4229652814371274  9.5146753599375629
  4.1966989724245298  2.4229652814371274  9.5146753599375629
  1.3988996574748431  2.4229652814371274  9.5146753599375629
  5.5955986298993725  0.0000000000000000  9.5146753599375629
  2.7977993149496863  0.0000000000000000  9.5146753599375629
  0.0000000000000000  0.0000000000000000  9.5146753599375629
