Ag 
 1.0000000000000000
     8.8215284571770596    0.0000000000000000    0.0000000000000000
     4.4107642285885298    7.6396677441226775    0.0000000000000000
     0.0000000000000000    0.0000000000000000   27.2027478238417046
  36
Cartesian
  8.8215284571770596  5.0931118294151183 17.2027478238417046
  5.8810189714513728  5.0931118294151183 17.2027478238417046
  2.9405094857256864  5.0931118294151183 17.2027478238417046
  7.3512737143142157  2.5465559147075592 17.2027478238417046
  4.4107642285885298  2.5465559147075592 17.2027478238417046
  1.4702547428628432  2.5465559147075592 17.2027478238417046
  5.8810189714513728  0.0000000000000000 17.2027478238417046
  2.9405094857256864  0.0000000000000000 17.2027478238417046
  0.0000000000000000  0.0000000000000000 17.2027478238417046
  8.8215284571770596  6.7908157725534908 14.8018318825611388
  5.8810189714513728  6.7908157725534908 14.8018318825611388
  2.9405094857256859  6.7908157725534908 14.8018318825611388
  7.3512737143142157  4.2442598578459316 14.8018318825611388
  4.4107642285885298  4.2442598578459316 14.8018318825611388
  1.4702547428628432  4.2442598578459316 14.8018318825611388
  5.8810189714513728  1.6977039431383727 14.8018318825611388
  2.9405094857256868  1.6977039431383727 14.8018318825611388
  0.0000000000000000  1.6977039431383727 14.8018318825611388
 10.2917832000399017  5.9419638009843050 12.4009159412805694
  7.3512737143142157  5.9419638009843050 12.4009159412805694
  4.4107642285885298  5.9419638009843050 12.4009159412805694
  8.8215284571770596  3.3954078862767454 12.4009159412805694
  5.8810189714513719  3.3954078862767454 12.4009159412805694
  2.9405094857256859  3.3954078862767454 12.4009159412805694
  7.3512737143142157  0.8488519715691863 12.4009159412805694
  4.4107642285885289  0.8488519715691863 12.4009159412805694
  1.4702547428628430  0.8488519715691863 12.4009159412805694
  8.8215284571770596  5.0931118294151183 10.0000000000000000
  5.8810189714513728  5.0931118294151183 10.0000000000000000
  2.9405094857256864  5.0931118294151183 10.0000000000000000
  7.3512737143142157  2.5465559147075592 10.0000000000000000
  4.4107642285885298  2.5465559147075592 10.0000000000000000
  1.4702547428628432  2.5465559147075592 10.0000000000000000
  5.8810189714513728  0.0000000000000000 10.0000000000000000
  2.9405094857256864  0.0000000000000000 10.0000000000000000
  0.0000000000000000  0.0000000000000000 10.0000000000000000
