Sc 
 1.0000000000000000
     9.7024467149999989    0.0000000000000000    0.0000000000000000
     4.8512233574999994    8.4025653340548754    0.0000000000000000
     0.0000000000000000    0.0000000000000000   29.9031563072549069
  36
Cartesian
  9.7024467149999989  5.6017102227032503 18.6408453654265749
  6.4682978100000001  5.6017102227032503 18.6408453654265749
  3.2341489050000001  5.6017102227032503 18.6408453654265749
  8.0853722625000000  2.8008551113516251 18.6408453654265749
  4.8512233574999994  2.8008551113516251 18.6408453654265749
  1.6170744525000000  2.8008551113516251 18.6408453654265749
  6.4682978100000001  0.0000000000000000 18.6408453654265749
  3.2341489050000001  0.0000000000000000 18.6408453654265749
  0.0000000000000000  0.0000000000000000 18.6408453654265749
  9.7024467149999989  7.4689469636043331 16.1813338908938285
  6.4682978100000001  7.4689469636043331 16.1813338908938285
  3.2341489050000001  7.4689469636043331 16.1813338908938285
  8.0853722625000000  4.6680918522527080 16.1813338908938285
  4.8512233574999994  4.6680918522527080 16.1813338908938285
  1.6170744524999998  4.6680918522527080 16.1813338908938285
  6.4682978100000001  1.8672367409010833 16.1813338908938285
  3.2341489050000001  1.8672367409010833 16.1813338908938285
  0.0000000000000000  1.8672367409010833 16.1813338908938285
  9.7024467149999989  5.6017102227032503 13.7218224163610802
  6.4682978100000001  5.6017102227032503 13.7218224163610802
  3.2341489050000001  5.6017102227032503 13.7218224163610802
  8.0853722625000000  2.8008551113516251 13.7218224163610802
  4.8512233574999994  2.8008551113516251 13.7218224163610802
  1.6170744525000000  2.8008551113516251 13.7218224163610802
  6.4682978100000001  0.0000000000000000 13.7218224163610802
  3.2341489050000001  0.0000000000000000 13.7218224163610802
  0.0000000000000000  0.0000000000000000 13.7218224163610802
  9.7024467149999989  7.4689469636043331 11.2623109418283320
  6.4682978100000001  7.4689469636043331 11.2623109418283320
  3.2341489050000001  7.4689469636043331 11.2623109418283320
  8.0853722625000000  4.6680918522527080 11.2623109418283320
  4.8512233574999994  4.6680918522527080 11.2623109418283320
  1.6170744524999998  4.6680918522527080 11.2623109418283320
  6.4682978100000001  1.8672367409010833 11.2623109418283320
  3.2341489050000001  1.8672367409010833 11.2623109418283320
  0.0000000000000000  1.8672367409010833 11.2623109418283320
