Ti 
 1.0000000000000000
     8.6628676799999997    0.0000000000000000    0.0000000000000000
     4.3314338399999999    7.5022634805031636    0.0000000000000000
     0.0000000000000000    0.0000000000000000   27.4671153654718658
  36
Cartesian
  8.6628676799999997  5.0015089870021088 17.1222811699603987
  5.7752451200000001  5.0015089870021088 17.1222811699603987
  2.8876225600000001  5.0015089870021088 17.1222811699603987
  7.2190564000000004  2.5007544935010544 17.1222811699603987
  4.3314338399999999  2.5007544935010544 17.1222811699603987
  1.4438112800000000  2.5007544935010544 17.1222811699603987
  5.7752451200000001  0.0000000000000000 17.1222811699603987
  2.8876225600000001  0.0000000000000000 17.1222811699603987
  0.0000000000000000  0.0000000000000000 17.1222811699603987
  8.6628676799999997  6.6686786493361447 14.8631321784774233
  5.7752451200000001  6.6686786493361447 14.8631321784774233
  2.8876225600000001  6.6686786493361447 14.8631321784774233
  7.2190563999999986  4.1679241558350899 14.8631321784774233
  4.3314338399999999  4.1679241558350899 14.8631321784774233
  1.4438112799999998  4.1679241558350899 14.8631321784774233
  5.7752451200000001  1.6671696623340362 14.8631321784774233
  2.8876225600000001  1.6671696623340362 14.8631321784774233
  0.0000000000000000  1.6671696623340362 14.8631321784774233
  8.6628676799999997  5.0015089870021088 12.6039831869944443
  5.7752451200000001  5.0015089870021088 12.6039831869944443
  2.8876225600000001  5.0015089870021088 12.6039831869944443
  7.2190564000000004  2.5007544935010544 12.6039831869944443
  4.3314338399999999  2.5007544935010544 12.6039831869944443
  1.4438112800000000  2.5007544935010544 12.6039831869944443
  5.7752451200000001  0.0000000000000000 12.6039831869944443
  2.8876225600000001  0.0000000000000000 12.6039831869944443
  0.0000000000000000  0.0000000000000000 12.6039831869944443
  8.6628676799999997  6.6686786493361447 10.3448341955114653
  5.7752451200000001  6.6686786493361447 10.3448341955114653
  2.8876225600000001  6.6686786493361447 10.3448341955114653
  7.2190563999999986  4.1679241558350899 10.3448341955114653
  4.3314338399999999  4.1679241558350899 10.3448341955114653
  1.4438112799999998  4.1679241558350899 10.3448341955114653
  5.7752451200000001  1.6671696623340362 10.3448341955114653
  2.8876225600000001  1.6671696623340362 10.3448341955114653
  0.0000000000000000  1.6671696623340362 10.3448341955114653
