Ru 
 1.0000000000000000
     8.1588467759999990    0.0000000000000000    0.0000000000000000
     4.0794233879999995    7.0657685736007654    0.0000000000000000
     0.0000000000000000    0.0000000000000000   26.5515278895331264
  36
Cartesian
  8.1588467759999990  4.7105123824005100 16.5515278895331264
  5.4392311839999996  4.7105123824005100 16.5515278895331264
  2.7196155919999998  4.7105123824005100 16.5515278895331264
  6.7990389799999997  2.3552561912002550 16.5515278895331264
  4.0794233879999995  2.3552561912002550 16.5515278895331264
  1.3598077959999999  2.3552561912002550 16.5515278895331264
  5.4392311839999996  0.0000000000000000 16.5515278895331264
  2.7196155919999998  0.0000000000000000 16.5515278895331264
  0.0000000000000000  0.0000000000000000 16.5515278895331264
  8.1588467759999990  6.2806831765340130 14.3676852596887521
  5.4392311839999996  6.2806831765340130 14.3676852596887521
  2.7196155919999998  6.2806831765340130 14.3676852596887521
  6.7990389799999988  3.9254269853337580 14.3676852596887521
  4.0794233879999995  3.9254269853337580 14.3676852596887521
  1.3598077959999997  3.9254269853337580 14.3676852596887521
  5.4392311839999996  1.5701707941335032 14.3676852596887521
  2.7196155919999998  1.5701707941335032 14.3676852596887521
  0.0000000000000000  1.5701707941335032 14.3676852596887521
  8.1588467759999990  4.7105123824005100 12.1838426298443760
  5.4392311839999996  4.7105123824005100 12.1838426298443760
  2.7196155919999998  4.7105123824005100 12.1838426298443760
  6.7990389799999997  2.3552561912002550 12.1838426298443760
  4.0794233879999995  2.3552561912002550 12.1838426298443760
  1.3598077959999999  2.3552561912002550 12.1838426298443760
  5.4392311839999996  0.0000000000000000 12.1838426298443760
  2.7196155919999998  0.0000000000000000 12.1838426298443760
  0.0000000000000000  0.0000000000000000 12.1838426298443760
  8.1588467759999990  6.2806831765340130 10.0000000000000000
  5.4392311839999996  6.2806831765340130 10.0000000000000000
  2.7196155919999998  6.2806831765340130 10.0000000000000000
  6.7990389799999988  3.9254269853337580 10.0000000000000000
  4.0794233879999995  3.9254269853337580 10.0000000000000000
  1.3598077959999997  3.9254269853337580 10.0000000000000000
  5.4392311839999996  1.5701707941335032 10.0000000000000000
  2.7196155919999998  1.5701707941335032 10.0000000000000000
  0.0000000000000000  1.5701707941335032 10.0000000000000000
