Os 
 1.0000000000000000
     8.2313773619999999    0.0000000000000000    0.0000000000000000
     4.1156886810000000    7.1285819036281373    0.0000000000000000
     0.0000000000000000    0.0000000000000000   26.7875658897426767
  36
Cartesian
  8.2313773619999999  4.7523879357520915 16.6986678040311602
  5.4875849079999997  4.7523879357520915 16.6986678040311602
  2.7437924539999998  4.7523879357520915 16.6986678040311602
  6.8594811350000002  2.3761939678760458 16.6986678040311602
  4.1156886810000000  2.3761939678760458 16.6986678040311602
  1.3718962269999999  2.3761939678760458 16.6986678040311602
  5.4875849079999997  0.0000000000000000 16.6986678040311602
  2.7437924539999998  0.0000000000000000 16.6986678040311602
  0.0000000000000000  0.0000000000000000 16.6986678040311602
  8.2313773619999999  6.3365172476694553 14.4954112312579468
  5.4875849079999997  6.3365172476694553 14.4954112312579468
  2.7437924539999998  6.3365172476694553 14.4954112312579468
  6.8594811349999993  3.9603232797934091 14.4954112312579468
  4.1156886810000000  3.9603232797934091 14.4954112312579468
  1.3718962269999997  3.9603232797934091 14.4954112312579468
  5.4875849079999997  1.5841293119173638 14.4954112312579468
  2.7437924539999998  1.5841293119173638 14.4954112312579468
  0.0000000000000000  1.5841293119173638 14.4954112312579468
  8.2313773619999999  4.7523879357520915 12.2921546584847334
  5.4875849079999997  4.7523879357520915 12.2921546584847334
  2.7437924539999998  4.7523879357520915 12.2921546584847334
  6.8594811350000002  2.3761939678760458 12.2921546584847334
  4.1156886810000000  2.3761939678760458 12.2921546584847334
  1.3718962269999999  2.3761939678760458 12.2921546584847334
  5.4875849079999997  0.0000000000000000 12.2921546584847334
  2.7437924539999998  0.0000000000000000 12.2921546584847334
  0.0000000000000000  0.0000000000000000 12.2921546584847334
  8.2313773619999999  6.3365172476694553 10.0888980857115200
  5.4875849079999997  6.3365172476694553 10.0888980857115200
  2.7437924539999998  6.3365172476694553 10.0888980857115200
  6.8594811349999993  3.9603232797934091 10.0888980857115200
  4.1156886810000000  3.9603232797934091 10.0888980857115200
  1.3718962269999997  3.9603232797934091 10.0888980857115200
  5.4875849079999997  1.5841293119173638 10.0888980857115200
  2.7437924539999998  1.5841293119173638 10.0888980857115200
  0.0000000000000000  1.5841293119173638 10.0888980857115200
