Ir 
 1.0000000000000000
     8.2339324185663294    0.0000000000000000    0.0000000000000000
     4.1169662092831647    7.1307946475226824    0.0000000000000000
     0.0000000000000000    0.0000000000000000   25.3907912067759263
  36
Cartesian
  8.2339324185663294  4.7538630983484556 16.0568844370626458
  5.4892882790442199  4.7538630983484556 16.0568844370626458
  2.7446441395221099  4.7538630983484556 16.0568844370626458
  6.8616103488052742  2.3769315491742278 16.0568844370626458
  4.1169662092831647  2.3769315491742278 16.0568844370626458
  1.3723220697610550  2.3769315491742278 16.0568844370626458
  5.4892882790442199  0.0000000000000000 16.0568844370626458
  2.7446441395221099  0.0000000000000000 16.0568844370626458
  0.0000000000000000  0.0000000000000000 16.0568844370626458
  8.2339324185663294  6.3384841311312732 13.8158918812795264
  5.4892882790442199  6.3384841311312732 13.8158918812795264
  2.7446441395221095  6.3384841311312732 13.8158918812795264
  6.8616103488052742  3.9615525819570458 13.8158918812795264
  4.1169662092831647  3.9615525819570458 13.8158918812795264
  1.3723220697610550  3.9615525819570458 13.8158918812795264
  5.4892882790442199  1.5846210327828183 13.8158918812795264
  2.7446441395221104  1.5846210327828183 13.8158918812795264
  0.0000000000000000  1.5846210327828183 13.8158918812795264
  9.6062544883273837  5.5461736147398648 11.5748993254964034
  6.8616103488052742  5.5461736147398648 11.5748993254964034
  4.1169662092831647  5.5461736147398648 11.5748993254964034
  8.2339324185663294  3.1692420655656366 11.5748993254964034
  5.4892882790442190  3.1692420655656366 11.5748993254964034
  2.7446441395221095  3.1692420655656366 11.5748993254964034
  6.8616103488052742  0.7923105163914091 11.5748993254964034
  4.1169662092831638  0.7923105163914091 11.5748993254964034
  1.3723220697610548  0.7923105163914091 11.5748993254964034
  8.2339324185663294  4.7538630983484556  9.3339067697132787
  5.4892882790442199  4.7538630983484556  9.3339067697132787
  2.7446441395221099  4.7538630983484556  9.3339067697132787
  6.8616103488052742  2.3769315491742278  9.3339067697132787
  4.1169662092831647  2.3769315491742278  9.3339067697132787
  1.3723220697610550  2.3769315491742278  9.3339067697132787
  5.4892882790442199  0.0000000000000000  9.3339067697132787
  2.7446441395221099  0.0000000000000000  9.3339067697132787
  0.0000000000000000  0.0000000000000000  9.3339067697132787
