Pt 
 1.0000000000000000
     8.4549432455842233    0.0000000000000000    0.0000000000000000
     4.2274716227921116    7.3221956382315874    0.0000000000000000
     0.0000000000000000    0.0000000000000000   26.0723172963749548
  36
Cartesian
  8.4549432455842233  4.8814637588210577 16.4878747741662224
  5.6366288303894825  4.8814637588210577 16.4878747741662224
  2.8183144151947412  4.8814637588210577 16.4878747741662224
  7.0457860379868524  2.4407318794105288 16.4878747741662224
  4.2274716227921116  2.4407318794105288 16.4878747741662224
  1.4091572075973706  2.4407318794105288 16.4878747741662224
  5.6366288303894825  0.0000000000000000 16.4878747741662224
  2.8183144151947412  0.0000000000000000 16.4878747741662224
  0.0000000000000000  0.0000000000000000 16.4878747741662224
  8.4549432455842233  6.5086183450947441 14.1867306901803953
  5.6366288303894825  6.5086183450947441 14.1867306901803953
  2.8183144151947408  6.5086183450947441 14.1867306901803953
  7.0457860379868524  4.0678864656842144 14.1867306901803953
  4.2274716227921116  4.0678864656842144 14.1867306901803953
  1.4091572075973706  4.0678864656842144 14.1867306901803953
  5.6366288303894825  1.6271545862736860 14.1867306901803953
  2.8183144151947417  1.6271545862736860 14.1867306901803953
  0.0000000000000000  1.6271545862736860 14.1867306901803953
  9.8641004531815923  5.6950410519579009 11.8855866061945648
  7.0457860379868524  5.6950410519579009 11.8855866061945648
  4.2274716227921116  5.6950410519579009 11.8855866061945648
  8.4549432455842233  3.2543091725473721 11.8855866061945648
  5.6366288303894816  3.2543091725473721 11.8855866061945648
  2.8183144151947408  3.2543091725473721 11.8855866061945648
  7.0457860379868524  0.8135772931368430 11.8855866061945648
  4.2274716227921108  0.8135772931368430 11.8855866061945648
  1.4091572075973704  0.8135772931368430 11.8855866061945648
  8.4549432455842233  4.8814637588210577  9.5844425222087342
  5.6366288303894825  4.8814637588210577  9.5844425222087342
  2.8183144151947412  4.8814637588210577  9.5844425222087342
  7.0457860379868524  2.4407318794105288  9.5844425222087342
  4.2274716227921116  2.4407318794105288  9.5844425222087342
  1.4091572075973706  2.4407318794105288  9.5844425222087342
  5.6366288303894825  0.0000000000000000  9.5844425222087342
  2.8183144151947412  0.0000000000000000  9.5844425222087342
  0.0000000000000000  0.0000000000000000  9.5844425222087342
