Rh 
 1.0000000000000000
     8.1558369986534611    0.0000000000000000    0.0000000000000000
     4.0779184993267306    7.0631620299589253    0.0000000000000000
     0.0000000000000000    0.0000000000000000   25.1499701263475757
  36
Cartesian
  8.1558369986534611  4.7087746866392832 15.9045915751759850
  5.4372246657689738  4.7087746866392832 15.9045915751759850
  2.7186123328844869  4.7087746866392832 15.9045915751759850
  6.7965308322112170  2.3543873433196416 15.9045915751759850
  4.0779184993267306  2.3543873433196416 15.9045915751759850
  1.3593061664422434  2.3543873433196416 15.9045915751759850
  5.4372246657689738  0.0000000000000000 15.9045915751759850
  2.7186123328844869  0.0000000000000000 15.9045915751759850
  0.0000000000000000  0.0000000000000000 15.9045915751759850
  8.1558369986534611  6.2783662488523779 13.6848539005078553
  5.4372246657689738  6.2783662488523779 13.6848539005078553
  2.7186123328844864  6.2783662488523779 13.6848539005078553
  6.7965308322112170  3.9239789055327359 13.6848539005078553
  4.0779184993267306  3.9239789055327359 13.6848539005078553
  1.3593061664422434  3.9239789055327359 13.6848539005078553
  5.4372246657689738  1.5695915622130945 13.6848539005078553
  2.7186123328844873  1.5695915622130945 13.6848539005078553
  0.0000000000000000  1.5695915622130945 13.6848539005078553
  9.5151431650957026  5.4935704677458306 11.4651162258397221
  6.7965308322112170  5.4935704677458306 11.4651162258397221
  4.0779184993267306  5.4935704677458306 11.4651162258397221
  8.1558369986534611  3.1391831244261890 11.4651162258397221
  5.4372246657689729  3.1391831244261890 11.4651162258397221
  2.7186123328844864  3.1391831244261890 11.4651162258397221
  6.7965308322112170  0.7847957811065472 11.4651162258397221
  4.0779184993267297  0.7847957811065472 11.4651162258397221
  1.3593061664422432  0.7847957811065472 11.4651162258397221
  8.1558369986534611  4.7087746866392832  9.2453785511715907
  5.4372246657689738  4.7087746866392832  9.2453785511715907
  2.7186123328844869  4.7087746866392832  9.2453785511715907
  6.7965308322112170  2.3543873433196416  9.2453785511715907
  4.0779184993267306  2.3543873433196416  9.2453785511715907
  1.3593061664422434  2.3543873433196416  9.2453785511715907
  5.4372246657689738  0.0000000000000000  9.2453785511715907
  2.7186123328844869  0.0000000000000000  9.2453785511715907
  0.0000000000000000  0.0000000000000000  9.2453785511715907
