Co 
 1.0000000000000000
     7.5349136220000004    0.0000000000000000    0.0000000000000000
     3.7674568110000002    6.5254266119734181    0.0000000000000000
     0.0000000000000000    0.0000000000000000   24.4954175398690701
  36
Cartesian
  7.5349136220000004  4.3502844079822784 15.2698024860832557
  5.0232757480000005  4.3502844079822784 15.2698024860832557
  2.5116378740000003  4.3502844079822784 15.2698024860832557
  6.2790946850000005  2.1751422039911392 15.2698024860832557
  3.7674568110000002  2.1751422039911392 15.2698024860832557
  1.2558189370000001  2.1751422039911392 15.2698024860832557
  5.0232757480000005  0.0000000000000000 15.2698024860832557
  2.5116378740000003  0.0000000000000000 15.2698024860832557
  0.0000000000000000  0.0000000000000000 15.2698024860832557
  7.5349136220000004  5.8003792106430376 13.2550733419841098
  5.0232757480000005  5.8003792106430376 13.2550733419841098
  2.5116378740000003  5.8003792106430376 13.2550733419841098
  6.2790946849999996  3.6252370066518984 13.2550733419841098
  3.7674568110000002  3.6252370066518984 13.2550733419841098
  1.2558189369999999  3.6252370066518984 13.2550733419841098
  5.0232757480000005  1.4500948026607594 13.2550733419841098
  2.5116378740000003  1.4500948026607594 13.2550733419841098
  0.0000000000000000  1.4500948026607594 13.2550733419841098
  7.5349136220000004  4.3502844079822784 11.2403441978849621
  5.0232757480000005  4.3502844079822784 11.2403441978849621
  2.5116378740000003  4.3502844079822784 11.2403441978849621
  6.2790946850000005  2.1751422039911392 11.2403441978849621
  3.7674568110000002  2.1751422039911392 11.2403441978849621
  1.2558189370000001  2.1751422039911392 11.2403441978849621
  5.0232757480000005  0.0000000000000000 11.2403441978849621
  2.5116378740000003  0.0000000000000000 11.2403441978849621
  0.0000000000000000  0.0000000000000000 11.2403441978849621
  7.5349136220000004  5.8003792106430376  9.2256150537858144
  5.0232757480000005  5.8003792106430376  9.2256150537858144
  2.5116378740000003  5.8003792106430376  9.2256150537858144
  6.2790946849999996  3.6252370066518984  9.2256150537858144
  3.7674568110000002  3.6252370066518984  9.2256150537858144
  1.2558189369999999  3.6252370066518984  9.2256150537858144
  5.0232757480000005  1.4500948026607594  9.2256150537858144
  2.5116378740000003  1.4500948026607594  9.2256150537858144
  0.0000000000000000  1.4500948026607594  9.2256150537858144
